100 152782
33 73 39 63 22 95 12 3 97 80 77 67 71 13 9 85 74 16 82 57 96 36 76 91 81 61 87 68 23 2 92 32 72 64 99 89 88 38 79 66 78 17 26 40 18 84 6 5 43 52 62 21 56 93 1 60 8 35 29 69 53 45 51 37 24 41 65 11 28 7 20 4 86 14 49 44 25 47 50 54 27 59 55 34 48 46 83 30 75 10 94 31 90 15 70 19 98 42 58 100 
